NAME          ClpDefau  FREE
ROWS
 N  OBJROW
 L  ZMUNI1_PCT
 L  ZMUNI2_PCT
 L  ZMUNI3_PCT
 L  ZMUNI4_PCT
 L  ZMUNI5_PCT
 L  ZMUNI6_PCT
 L  ZMUNI7_PCT
 L  ZMUNI8_PCT
 L  ZMUNI9_PCT
COLUMNS
    QMUNI1 OBJROW 1.          
    QMUNI1 ZMUNI1_PCT 30739.0213  
    QMUNI1 ZMUNI2_PCT 2024.8413   
    QMUNI1 ZMUNI3_PCT 4464.3402   
    QMUNI1 ZMUNI4_PCT 3700.6378   
    QMUNI1 ZMUNI5_PCT 279.9988    
    QMUNI1 ZMUNI6_PCT 483.8943    
    QMUNI1 ZMUNI7_PCT 2680.9692   
    QMUNI1 ZMUNI8_PCT 1955.4138   
    QMUNI1 ZMUNI9_PCT 1101.6846   
    QMUNI2 OBJROW 1.          
    QMUNI2 ZMUNI1_PCT 1737.9761   
    QMUNI2 ZMUNI2_PCT 37223.2437  
    QMUNI2 ZMUNI3_PCT 2570.9152   
    QMUNI2 ZMUNI4_PCT 3102.8748   
    QMUNI2 ZMUNI5_PCT  -287.2467  
    QMUNI2 ZMUNI6_PCT  -117.6835  
    QMUNI2 ZMUNI7_PCT 1016.2353   
    QMUNI2 ZMUNI8_PCT 1190.567    
    QMUNI2 ZMUNI9_PCT 1301.1933   
    QMUNI3 OBJROW 1.          
    QMUNI3 ZMUNI1_PCT 4348.3734   
    QMUNI3 ZMUNI2_PCT 2922.2489   
    QMUNI3 ZMUNI3_PCT 32325.1724  
    QMUNI3 ZMUNI4_PCT 5942.9169   
    QMUNI3 ZMUNI5_PCT 464.8209    
    QMUNI3 ZMUNI6_PCT 591.278     
    QMUNI3 ZMUNI7_PCT 2664.1845   
    QMUNI3 ZMUNI8_PCT 2260.5896   
    QMUNI3 ZMUNI9_PCT 1795.1966   
    QMUNI4 OBJROW 1.          
    QMUNI4 ZMUNI1_PCT 3289.9856   
    QMUNI4 ZMUNI2_PCT 3092.5751   
    QMUNI4 ZMUNI3_PCT 5525.2075   
    QMUNI4 ZMUNI4_PCT 129661.9416 
    QMUNI4 ZMUNI5_PCT  -59.1278   
    QMUNI4 ZMUNI6_PCT 138.092     
    QMUNI4 ZMUNI7_PCT 1715.8508   
    QMUNI4 ZMUNI8_PCT 1510.2386   
    QMUNI4 ZMUNI9_PCT 1006.3172   
    QMUNI5 OBJROW 1.          
    QMUNI5 ZMUNI1_PCT 229.454     
    QMUNI5 ZMUNI2_PCT 133.133     
    QMUNI5 ZMUNI3_PCT 185.7758    
    QMUNI5 ZMUNI4_PCT 168.6096    
    QMUNI5 ZMUNI5_PCT 41883.8501  
    QMUNI5 ZMUNI6_PCT 2816.2002   
    QMUNI5 ZMUNI7_PCT 415.039     
    QMUNI5 ZMUNI8_PCT 237.2742    
    QMUNI5 ZMUNI9_PCT 251.77      
    QMUNI6 OBJROW 1.          
    QMUNI6 ZMUNI1_PCT 318.5272    
    QMUNI6 ZMUNI2_PCT 167.0838    
    QMUNI6 ZMUNI3_PCT 244.7129    
    QMUNI6 ZMUNI4_PCT 195.3125    
    QMUNI6 ZMUNI5_PCT 3130.5313   
    QMUNI6 ZMUNI6_PCT 35464.2868  
    QMUNI6 ZMUNI7_PCT 683.5937    
    QMUNI6 ZMUNI8_PCT 356.6742    
    QMUNI6 ZMUNI9_PCT 306.7017    
    QMUNI7 OBJROW 1.          
    QMUNI7 ZMUNI1_PCT 1680.7556   
    QMUNI7 ZMUNI2_PCT 1150.322    
    QMUNI7 ZMUNI3_PCT 1516.9144   
    QMUNI7 ZMUNI4_PCT 1322.5556   
    QMUNI7 ZMUNI5_PCT 312.9959    
    QMUNI7 ZMUNI6_PCT 576.5914    
    QMUNI7 ZMUNI7_PCT 43081.2835  
    QMUNI7 ZMUNI8_PCT 3559.1125   
    QMUNI7 ZMUNI9_PCT 2187.3474   
    QMUNI8 OBJROW 1.          
    QMUNI8 ZMUNI1_PCT 1482.0099   
    QMUNI8 ZMUNI2_PCT 1326.9425   
    QMUNI8 ZMUNI3_PCT 1502.2278   
    QMUNI8 ZMUNI4_PCT 1388.1684   
    QMUNI8 ZMUNI5_PCT 351.5244    
    QMUNI8 ZMUNI6_PCT 491.7144    
    QMUNI8 ZMUNI7_PCT 3760.91     
    QMUNI8 ZMUNI8_PCT 35800.5524  
    QMUNI8 ZMUNI9_PCT 2389.5264   
    QMUNI9 OBJROW 1.          
    QMUNI9 ZMUNI1_PCT 703.8116    
    QMUNI9 ZMUNI2_PCT 1081.0852   
    QMUNI9 ZMUNI3_PCT 824.3561    
    QMUNI9 ZMUNI4_PCT 833.1299    
    QMUNI9 ZMUNI5_PCT  -119.0185  
    QMUNI9 ZMUNI6_PCT  -8.0109    
    QMUNI9 ZMUNI7_PCT 1039.1235   
    QMUNI9 ZMUNI8_PCT 1639.9383   
    QMUNI9 ZMUNI9_PCT 40828.3234  
RHS
    RHS ZMUNI1_PCT  -1.43812667
    RHS ZMUNI2_PCT 2.116827255 
    RHS ZMUNI3_PCT 0.7058536597
    RHS ZMUNI4_PCT 16.404539456
    RHS ZMUNI5_PCT 4.3981233583
    RHS ZMUNI6_PCT 0.527147437 
    RHS ZMUNI7_PCT 0.2580049698
    RHS ZMUNI8_PCT 2.3756053256
    RHS ZMUNI9_PCT 4.792766832 
BOUNDS
 LO BOUND QMUNI1 -0.000586394
 UP BOUND QMUNI1      1.1e+10
 LO BOUND QMUNI2 -0.000358213
 UP BOUND QMUNI2      1.1e+10
 LO BOUND QMUNI3 -0.000462757
 UP BOUND QMUNI3      1.1e+10
 LO BOUND QMUNI4  -6.95708e-5
 UP BOUND QMUNI4      1.1e+10
 LO BOUND QMUNI5 -0.00018723 
 UP BOUND QMUNI5      1.1e+10
 LO BOUND QMUNI6 -0.000390689
 UP BOUND QMUNI6      1.1e+10
 LO BOUND QMUNI7  -1.33741e-5
 UP BOUND QMUNI7      1.1e+10
 LO BOUND QMUNI8 -0.000120704
 UP BOUND QMUNI8      1.1e+10
 LO BOUND QMUNI9  -1.57474e-5
 UP BOUND QMUNI9      1.1e+10
ENDATA
